(set-info :smt-lib-version 2.6)
(set-logic QF_NIA)
(set-info :source |
Generated by: Cristina Borralleras, Daniel Larraz, Albert Oliveras, Enric Rodriguez-Carbonell, Albert Rubio
Generated on: 2017-04-27
Generator: VeryMax
Application: Termination proving
Target solver: barcelogic
|)
(set-info :license "https://creativecommons.org/licenses/by/4.0/")
(set-info :category "industrial")
(set-info :status unknown)
(declare-fun Nl6arg11 () Int)
(declare-fun Nl6arg21 () Int)
(declare-fun Nl6arg31 () Int)
(declare-fun Nl6arg41 () Int)
(declare-fun Nl6arg51 () Int)
(declare-fun Nl6arg61 () Int)
(declare-fun Nl6arg12 () Int)
(declare-fun Nl6arg22 () Int)
(declare-fun Nl6arg32 () Int)
(declare-fun Nl6arg42 () Int)
(declare-fun Nl6arg52 () Int)
(declare-fun Nl6arg62 () Int)
(declare-fun Nl6arg13 () Int)
(declare-fun Nl6arg23 () Int)
(declare-fun Nl6arg33 () Int)
(declare-fun Nl6arg43 () Int)
(declare-fun Nl6arg53 () Int)
(declare-fun Nl6arg63 () Int)
(declare-fun lam0n0 () Int)
(declare-fun lam0n1 () Int)
(declare-fun lam0n2 () Int)
(declare-fun lam0n3 () Int)
(declare-fun lam0n4 () Int)
(declare-fun lam0n5 () Int)
(declare-fun lam0n6 () Int)
(declare-fun lam0n7 () Int)
(declare-fun lam0n8 () Int)
(declare-fun lam0n9 () Int)
(declare-fun lam0n10 () Int)
(declare-fun lam0n11 () Int)
(declare-fun lam0n12 () Int)
(declare-fun lam0n13 () Int)
(declare-fun lam0n14 () Int)
(declare-fun lam0n15 () Int)
(declare-fun lam0n16 () Int)
(declare-fun lam0n17 () Int)
(declare-fun lam0n18 () Int)
(declare-fun lam0n19 () Int)
(declare-fun lam0n20 () Int)
(declare-fun lam0n21 () Int)
(declare-fun lam0n22 () Int)
(declare-fun lam0n23 () Int)
(declare-fun Nl6CT1 () Int)
(declare-fun lam0n24 () Int)
(declare-fun lam0n25 () Int)
(declare-fun lam0n26 () Int)
(declare-fun lam1n0 () Int)
(declare-fun lam1n1 () Int)
(declare-fun lam1n2 () Int)
(declare-fun lam1n3 () Int)
(declare-fun lam1n4 () Int)
(declare-fun lam1n5 () Int)
(declare-fun lam1n6 () Int)
(declare-fun lam1n7 () Int)
(declare-fun lam1n8 () Int)
(declare-fun lam1n9 () Int)
(declare-fun lam1n10 () Int)
(declare-fun lam1n11 () Int)
(declare-fun lam1n12 () Int)
(declare-fun lam1n13 () Int)
(declare-fun lam1n14 () Int)
(declare-fun lam1n15 () Int)
(declare-fun lam1n16 () Int)
(declare-fun lam1n17 () Int)
(declare-fun lam1n18 () Int)
(declare-fun lam1n19 () Int)
(declare-fun lam1n20 () Int)
(declare-fun lam1n21 () Int)
(declare-fun lam1n22 () Int)
(declare-fun lam1n23 () Int)
(declare-fun Nl6CT2 () Int)
(declare-fun lam1n24 () Int)
(declare-fun lam1n25 () Int)
(declare-fun lam1n26 () Int)
(declare-fun lam2n0 () Int)
(declare-fun lam2n1 () Int)
(declare-fun lam2n2 () Int)
(declare-fun lam2n3 () Int)
(declare-fun lam2n4 () Int)
(declare-fun lam2n5 () Int)
(declare-fun lam2n6 () Int)
(declare-fun lam2n7 () Int)
(declare-fun lam2n8 () Int)
(declare-fun lam2n9 () Int)
(declare-fun lam2n10 () Int)
(declare-fun lam2n11 () Int)
(declare-fun lam2n12 () Int)
(declare-fun lam2n13 () Int)
(declare-fun lam2n14 () Int)
(declare-fun lam2n15 () Int)
(declare-fun lam2n16 () Int)
(declare-fun lam2n17 () Int)
(declare-fun lam2n18 () Int)
(declare-fun lam2n19 () Int)
(declare-fun lam2n20 () Int)
(declare-fun lam2n21 () Int)
(declare-fun lam2n22 () Int)
(declare-fun lam2n23 () Int)
(declare-fun Nl6CT3 () Int)
(declare-fun lam2n24 () Int)
(declare-fun lam2n25 () Int)
(declare-fun lam2n26 () Int)
(declare-fun lam3n0 () Int)
(declare-fun lam3n1 () Int)
(declare-fun lam3n2 () Int)
(declare-fun lam3n3 () Int)
(declare-fun lam3n4 () Int)
(declare-fun lam3n5 () Int)
(declare-fun lam3n6 () Int)
(declare-fun lam3n7 () Int)
(declare-fun lam3n8 () Int)
(declare-fun lam3n9 () Int)
(declare-fun lam3n10 () Int)
(declare-fun lam3n11 () Int)
(declare-fun lam3n12 () Int)
(declare-fun lam3n13 () Int)
(declare-fun lam3n14 () Int)
(declare-fun lam3n15 () Int)
(declare-fun lam3n16 () Int)
(declare-fun lam3n17 () Int)
(declare-fun lam3n18 () Int)
(declare-fun lam3n19 () Int)
(declare-fun lam3n20 () Int)
(declare-fun lam3n21 () Int)
(declare-fun lam3n22 () Int)
(declare-fun lam3n23 () Int)
(declare-fun lam3n24 () Int)
(declare-fun lam3n25 () Int)
(declare-fun lam4n0 () Int)
(declare-fun lam4n1 () Int)
(declare-fun lam4n2 () Int)
(declare-fun lam4n3 () Int)
(declare-fun lam4n4 () Int)
(declare-fun lam4n5 () Int)
(declare-fun lam4n6 () Int)
(declare-fun lam4n7 () Int)
(declare-fun lam4n8 () Int)
(declare-fun lam4n9 () Int)
(declare-fun lam4n10 () Int)
(declare-fun lam4n11 () Int)
(declare-fun lam4n12 () Int)
(declare-fun lam4n13 () Int)
(declare-fun lam4n14 () Int)
(declare-fun lam4n15 () Int)
(declare-fun lam4n16 () Int)
(declare-fun lam4n17 () Int)
(declare-fun lam4n18 () Int)
(declare-fun lam4n19 () Int)
(declare-fun lam4n20 () Int)
(declare-fun lam4n21 () Int)
(declare-fun lam4n22 () Int)
(declare-fun lam4n23 () Int)
(declare-fun lam4n24 () Int)
(declare-fun lam4n25 () Int)
(declare-fun lam5n0 () Int)
(declare-fun lam5n1 () Int)
(declare-fun lam5n2 () Int)
(declare-fun lam5n3 () Int)
(declare-fun lam5n4 () Int)
(declare-fun lam5n5 () Int)
(declare-fun lam5n6 () Int)
(declare-fun lam5n7 () Int)
(declare-fun lam5n8 () Int)
(declare-fun lam5n9 () Int)
(declare-fun lam5n10 () Int)
(declare-fun lam5n11 () Int)
(declare-fun lam5n12 () Int)
(declare-fun lam5n13 () Int)
(declare-fun lam5n14 () Int)
(declare-fun lam5n15 () Int)
(declare-fun lam5n16 () Int)
(declare-fun lam5n17 () Int)
(declare-fun lam5n18 () Int)
(declare-fun lam5n19 () Int)
(declare-fun lam5n20 () Int)
(declare-fun lam5n21 () Int)
(declare-fun lam5n22 () Int)
(declare-fun lam5n23 () Int)
(declare-fun lam5n24 () Int)
(declare-fun lam5n25 () Int)
(declare-fun lam6n0 () Int)
(declare-fun lam6n1 () Int)
(declare-fun lam6n2 () Int)
(declare-fun lam6n3 () Int)
(declare-fun lam6n4 () Int)
(declare-fun lam6n5 () Int)
(declare-fun lam6n6 () Int)
(declare-fun lam6n7 () Int)
(declare-fun lam6n8 () Int)
(declare-fun lam6n9 () Int)
(declare-fun lam6n10 () Int)
(declare-fun lam6n11 () Int)
(declare-fun lam6n12 () Int)
(declare-fun lam6n13 () Int)
(declare-fun lam6n14 () Int)
(declare-fun lam6n15 () Int)
(declare-fun lam6n16 () Int)
(declare-fun lam6n17 () Int)
(declare-fun lam6n18 () Int)
(declare-fun lam6n19 () Int)
(declare-fun lam6n20 () Int)
(declare-fun lam6n21 () Int)
(declare-fun lam6n22 () Int)
(declare-fun lam6n23 () Int)
(declare-fun lam6n24 () Int)
(declare-fun lam6n25 () Int)
(declare-fun lam6n26 () Int)
(declare-fun lam6n27 () Int)
(declare-fun lam7n0 () Int)
(declare-fun lam7n1 () Int)
(declare-fun lam7n2 () Int)
(declare-fun lam7n3 () Int)
(declare-fun lam7n4 () Int)
(declare-fun lam7n5 () Int)
(declare-fun lam7n6 () Int)
(declare-fun lam7n7 () Int)
(declare-fun lam7n8 () Int)
(declare-fun lam7n9 () Int)
(declare-fun lam7n10 () Int)
(declare-fun lam7n11 () Int)
(declare-fun lam7n12 () Int)
(declare-fun lam7n13 () Int)
(declare-fun lam7n14 () Int)
(declare-fun lam7n15 () Int)
(declare-fun lam7n16 () Int)
(declare-fun lam7n17 () Int)
(declare-fun lam7n18 () Int)
(declare-fun lam7n19 () Int)
(declare-fun lam7n20 () Int)
(declare-fun lam7n21 () Int)
(declare-fun lam7n22 () Int)
(declare-fun lam7n23 () Int)
(declare-fun lam7n24 () Int)
(declare-fun lam7n25 () Int)
(declare-fun lam7n26 () Int)
(declare-fun lam7n27 () Int)
(declare-fun lam8n0 () Int)
(declare-fun lam8n1 () Int)
(declare-fun lam8n2 () Int)
(declare-fun lam8n3 () Int)
(declare-fun lam8n4 () Int)
(declare-fun lam8n5 () Int)
(declare-fun lam8n6 () Int)
(declare-fun lam8n7 () Int)
(declare-fun lam8n8 () Int)
(declare-fun lam8n9 () Int)
(declare-fun lam8n10 () Int)
(declare-fun lam8n11 () Int)
(declare-fun lam8n12 () Int)
(declare-fun lam8n13 () Int)
(declare-fun lam8n14 () Int)
(declare-fun lam8n15 () Int)
(declare-fun lam8n16 () Int)
(declare-fun lam8n17 () Int)
(declare-fun lam8n18 () Int)
(declare-fun lam8n19 () Int)
(declare-fun lam8n20 () Int)
(declare-fun lam8n21 () Int)
(declare-fun lam8n22 () Int)
(declare-fun lam8n23 () Int)
(declare-fun lam8n24 () Int)
(declare-fun lam8n25 () Int)
(declare-fun lam8n26 () Int)
(declare-fun lam8n27 () Int)
(declare-fun lam9n0 () Int)
(declare-fun lam9n1 () Int)
(declare-fun lam9n2 () Int)
(declare-fun lam9n3 () Int)
(declare-fun lam9n4 () Int)
(declare-fun lam9n5 () Int)
(declare-fun lam9n6 () Int)
(declare-fun lam9n7 () Int)
(declare-fun lam9n8 () Int)
(declare-fun lam9n9 () Int)
(declare-fun lam9n10 () Int)
(declare-fun lam9n11 () Int)
(declare-fun lam9n12 () Int)
(declare-fun lam9n13 () Int)
(declare-fun lam9n14 () Int)
(declare-fun lam9n15 () Int)
(declare-fun lam9n16 () Int)
(declare-fun lam9n17 () Int)
(declare-fun lam9n18 () Int)
(declare-fun lam9n19 () Int)
(declare-fun lam9n20 () Int)
(declare-fun lam9n21 () Int)
(declare-fun lam9n22 () Int)
(declare-fun lam9n23 () Int)
(declare-fun lam9n24 () Int)
(declare-fun lam9n25 () Int)
(declare-fun lam9n26 () Int)
(declare-fun lam10n0 () Int)
(declare-fun lam10n1 () Int)
(declare-fun lam10n2 () Int)
(declare-fun lam10n3 () Int)
(declare-fun lam10n4 () Int)
(declare-fun lam10n5 () Int)
(declare-fun lam10n6 () Int)
(declare-fun lam10n7 () Int)
(declare-fun lam10n8 () Int)
(declare-fun lam10n9 () Int)
(declare-fun lam10n10 () Int)
(declare-fun lam10n11 () Int)
(declare-fun lam10n12 () Int)
(declare-fun lam10n13 () Int)
(declare-fun lam10n14 () Int)
(declare-fun lam10n15 () Int)
(declare-fun lam10n16 () Int)
(declare-fun lam10n17 () Int)
(declare-fun lam10n18 () Int)
(declare-fun lam10n19 () Int)
(declare-fun lam10n20 () Int)
(declare-fun lam10n21 () Int)
(declare-fun lam10n22 () Int)
(declare-fun lam10n23 () Int)
(declare-fun lam10n24 () Int)
(declare-fun lam10n25 () Int)
(declare-fun lam10n26 () Int)
(declare-fun lam11n0 () Int)
(declare-fun lam11n1 () Int)
(declare-fun lam11n2 () Int)
(declare-fun lam11n3 () Int)
(declare-fun lam11n4 () Int)
(declare-fun lam11n5 () Int)
(declare-fun lam11n6 () Int)
(declare-fun lam11n7 () Int)
(declare-fun lam11n8 () Int)
(declare-fun lam11n9 () Int)
(declare-fun lam11n10 () Int)
(declare-fun lam11n11 () Int)
(declare-fun lam11n12 () Int)
(declare-fun lam11n13 () Int)
(declare-fun lam11n14 () Int)
(declare-fun lam11n15 () Int)
(declare-fun lam11n16 () Int)
(declare-fun lam11n17 () Int)
(declare-fun lam11n18 () Int)
(declare-fun lam11n19 () Int)
(declare-fun lam11n20 () Int)
(declare-fun lam11n21 () Int)
(declare-fun lam11n22 () Int)
(declare-fun lam11n23 () Int)
(declare-fun lam11n24 () Int)
(declare-fun lam11n25 () Int)
(declare-fun lam11n26 () Int)
(declare-fun undef1 () Int)
(declare-fun undef75 () Int)
(declare-fun undef83 () Int)
(declare-fun undef585 () Int)
(declare-fun arg3 () Int)
(declare-fun undef586 () Int)
(declare-fun undef74 () Int)
(declare-fun undef84 () Int)
(declare-fun undef85 () Int)
(declare-fun undef317 () Int)
(declare-fun undef326 () Int)
(declare-fun undef77 () Int)
(declare-fun undef88 () Int)
(declare-fun undef92 () Int)
(declare-fun undef93 () Int)
(declare-fun undef94 () Int)
(declare-fun arg2 () Int)
(declare-fun undef129 () Int)
(declare-fun arg6 () Int)
(declare-fun arg1 () Int)
(declare-fun undef128 () Int)
(declare-fun arg4 () Int)
(declare-fun arg5 () Int)
(declare-fun lam12n0 () Int)
(declare-fun lam12n1 () Int)
(declare-fun lam12n2 () Int)
(declare-fun lam12n3 () Int)
(declare-fun lam12n4 () Int)
(declare-fun lam12n5 () Int)
(declare-fun lam12n6 () Int)
(declare-fun lam12n7 () Int)
(declare-fun lam12n8 () Int)
(declare-fun lam12n9 () Int)
(declare-fun lam12n10 () Int)
(declare-fun lam12n12 () Int)
(declare-fun lam12n13 () Int)
(declare-fun lam12n14 () Int)
(declare-fun lam12n11 () Int)
(declare-fun lam13n0 () Int)
(declare-fun lam13n1 () Int)
(declare-fun lam13n2 () Int)
(declare-fun lam13n3 () Int)
(declare-fun lam13n4 () Int)
(declare-fun lam13n5 () Int)
(declare-fun lam13n6 () Int)
(declare-fun lam13n7 () Int)
(declare-fun lam13n8 () Int)
(declare-fun lam13n9 () Int)
(declare-fun lam13n10 () Int)
(declare-fun lam13n12 () Int)
(declare-fun lam13n13 () Int)
(declare-fun lam13n14 () Int)
(declare-fun lam13n11 () Int)
(assert ( and ( <= ( - 1 ) Nl6arg11 ) ( <= Nl6arg11 1 ) ( <= ( - 1 ) Nl6arg21 ) ( <= Nl6arg21 1 ) ( <= ( - 1 ) Nl6arg31 ) ( <= Nl6arg31 1 ) ( <= ( - 1 ) Nl6arg41 ) ( <= Nl6arg41 1 ) ( <= ( - 1 ) Nl6arg51 ) ( <= Nl6arg51 1 ) ( <= ( - 1 ) Nl6arg61 ) ( <= Nl6arg61 1 ) ( <= ( - 1 ) Nl6arg12 ) ( <= Nl6arg12 1 ) ( <= ( - 1 ) Nl6arg22 ) ( <= Nl6arg22 1 ) ( <= ( - 1 ) Nl6arg32 ) ( <= Nl6arg32 1 ) ( <= ( - 1 ) Nl6arg42 ) ( <= Nl6arg42 1 ) ( <= ( - 1 ) Nl6arg52 ) ( <= Nl6arg52 1 ) ( <= ( - 1 ) Nl6arg62 ) ( <= Nl6arg62 1 ) ( <= ( - 1 ) Nl6arg13 ) ( <= Nl6arg13 1 ) ( <= ( - 1 ) Nl6arg23 ) ( <= Nl6arg23 1 ) ( <= ( - 1 ) Nl6arg33 ) ( <= Nl6arg33 1 ) ( <= ( - 1 ) Nl6arg43 ) ( <= Nl6arg43 1 ) ( <= ( - 1 ) Nl6arg53 ) ( <= Nl6arg53 1 ) ( <= ( - 1 ) Nl6arg63 ) ( <= Nl6arg63 1 ) ))
(assert ( or ( and ( <= ( + 1 ( * ( - 1 ) undef1 ) ) 0 ) ( <= ( + 1 ( * ( - 1 ) undef75 ) ) 0 ) ( <= ( + 1 ( * ( - 1 ) undef83 ) ) 0 ) ( <= ( + 1 ( * ( - 1 ) undef585 ) ) 0 ) ( <= ( + ( * ( - 1 ) arg3 ) undef586 ) 0 ) ( <= ( + undef1 ( * ( - 1 ) undef585 ) ) 0 ) ( <= ( + ( * ( - 1 ) undef1 ) undef75 ) 0 ) ( <= ( + ( * ( - 1 ) undef74 ) undef84 ) 0 ) ( <= ( + ( * ( - 1 ) undef74 ) undef85 ) 0 ) ( <= ( + ( * ( - 1 ) undef75 ) undef83 ) 0 ) ( <= ( + ( * ( - 1 ) undef84 ) undef317 ) 0 ) ( <= ( + ( * ( - 1 ) undef85 ) undef317 ) 0 ) ( <= ( + ( * ( - 1 ) undef317 ) undef326 ) 0 ) ( <= ( + 2 ( * ( - 1 ) undef74 ) undef83 ) 0 ) ( <= ( + 3 ( * ( - 1 ) undef74 ) ) 0 ) ( <= ( + 3 ( * ( - 1 ) undef84 ) ) 0 ) ( <= ( + 3 ( * ( - 1 ) undef85 ) ) 0 ) ( <= ( + 3 ( * ( - 1 ) undef317 ) ) 0 ) ( <= ( + 3 ( * ( - 1 ) undef326 ) ) 0 ) ( <= ( + ( - 2 ) ( * ( - 1 ) undef1 ) undef74 ) 0 ) ( <= ( + ( - 2 ) ( * ( - 1 ) undef75 ) undef84 ) 0 ) ( <= ( + ( - 2 ) ( * ( - 1 ) undef75 ) undef85 ) 0 ) ( <= ( + ( - 2 ) ( * ( - 1 ) undef83 ) undef317 ) 0 ) ( not ( <= ( + ( - 94 ) undef77 ) 0 ) ) ( = arg3 0 ) ( = ( + undef77 ( * ( - 1 ) undef88 ) ) 0 ) ( = ( * ( - 1 ) undef586 ) 0 ) ( <= ( + ( + ( + ( + ( + ( + ( + Nl6CT1 ( * Nl6arg11 0 ) ) ( * Nl6arg21 0 ) ) ( * Nl6arg31 0 ) ) ( * Nl6arg41 0 ) ) ( * Nl6arg51 0 ) ) ( * Nl6arg61 0 ) ) ( * ( + 0 ( * Nl6arg51 1 ) ) undef77 ) ( * ( + 0 ( * Nl6arg11 1 ) ) undef83 ) ( * ( + 0 ( * Nl6arg21 1 ) ) undef84 ) ( * ( + 0 ( * Nl6arg31 1 ) ) undef85 ) ( * ( + 0 ( * Nl6arg61 1 ) ) undef88 ) ( * ( + 0 ( * Nl6arg41 1 ) ) undef586 ) ) 0 ) ( <= ( + ( + ( + ( + ( + ( + ( + Nl6CT2 ( * Nl6arg12 0 ) ) ( * Nl6arg22 0 ) ) ( * Nl6arg32 0 ) ) ( * Nl6arg42 0 ) ) ( * Nl6arg52 0 ) ) ( * Nl6arg62 0 ) ) ( * ( + 0 ( * Nl6arg52 1 ) ) undef77 ) ( * ( + 0 ( * Nl6arg12 1 ) ) undef83 ) ( * ( + 0 ( * Nl6arg22 1 ) ) undef84 ) ( * ( + 0 ( * Nl6arg32 1 ) ) undef85 ) ( * ( + 0 ( * Nl6arg62 1 ) ) undef88 ) ( * ( + 0 ( * Nl6arg42 1 ) ) undef586 ) ) 0 ) ( <= ( + ( + ( + ( + ( + ( + ( + Nl6CT3 ( * Nl6arg13 0 ) ) ( * Nl6arg23 0 ) ) ( * Nl6arg33 0 ) ) ( * Nl6arg43 0 ) ) ( * Nl6arg53 0 ) ) ( * Nl6arg63 0 ) ) ( * ( + 0 ( * Nl6arg53 1 ) ) undef77 ) ( * ( + 0 ( * Nl6arg13 1 ) ) undef83 ) ( * ( + 0 ( * Nl6arg23 1 ) ) undef84 ) ( * ( + 0 ( * Nl6arg33 1 ) ) undef85 ) ( * ( + 0 ( * Nl6arg63 1 ) ) undef88 ) ( * ( + 0 ( * Nl6arg43 1 ) ) undef586 ) ) 0 ) ) ( and ( <= ( + 1 ( * ( - 1 ) undef1 ) ) 0 ) ( <= ( + 1 ( * ( - 1 ) undef75 ) ) 0 ) ( <= ( + 1 ( * ( - 1 ) undef92 ) ) 0 ) ( <= ( + 1 ( * ( - 1 ) undef585 ) ) 0 ) ( <= ( + ( * ( - 1 ) arg3 ) undef586 ) 0 ) ( <= ( + undef1 ( * ( - 1 ) undef585 ) ) 0 ) ( <= ( + ( * ( - 1 ) undef1 ) undef75 ) 0 ) ( <= ( + ( * ( - 1 ) undef74 ) undef93 ) 0 ) ( <= ( + ( * ( - 1 ) undef74 ) undef94 ) 0 ) ( <= ( + ( * ( - 1 ) undef75 ) undef92 ) 0 ) ( <= ( + ( * ( - 1 ) undef93 ) undef317 ) 0 ) ( <= ( + ( * ( - 1 ) undef94 ) undef317 ) 0 ) ( <= ( + ( * ( - 1 ) undef317 ) undef326 ) 0 ) ( <= ( + 2 ( * ( - 1 ) undef74 ) undef92 ) 0 ) ( <= ( + 3 ( * ( - 1 ) undef74 ) ) 0 ) ( <= ( + 3 ( * ( - 1 ) undef93 ) ) 0 ) ( <= ( + 3 ( * ( - 1 ) undef94 ) ) 0 ) ( <= ( + 3 ( * ( - 1 ) undef317 ) ) 0 ) ( <= ( + 3 ( * ( - 1 ) undef326 ) ) 0 ) ( <= ( + ( - 2 ) ( * ( - 1 ) undef1 ) undef74 ) 0 ) ( <= ( + ( - 2 ) ( * ( - 1 ) undef75 ) undef93 ) 0 ) ( <= ( + ( - 2 ) ( * ( - 1 ) undef75 ) undef94 ) 0 ) ( <= ( + ( - 2 ) ( * ( - 1 ) undef92 ) undef317 ) 0 ) ( not ( <= ( + ( - 94 ) undef77 ) 0 ) ) ( = arg3 0 ) ( = ( * ( - 1 ) undef586 ) 0 ) ( <= ( + ( + ( + ( + ( + ( + ( + Nl6CT1 ( * Nl6arg11 0 ) ) ( * Nl6arg21 0 ) ) ( * Nl6arg31 0 ) ) ( * Nl6arg41 0 ) ) ( * Nl6arg51 0 ) ) ( * Nl6arg61 0 ) ) ( * ( + ( + 0 ( * Nl6arg51 1 ) ) ( * Nl6arg61 1 ) ) undef77 ) ( * ( + 0 ( * Nl6arg11 1 ) ) undef92 ) ( * ( + 0 ( * Nl6arg21 1 ) ) undef93 ) ( * ( + 0 ( * Nl6arg31 1 ) ) undef94 ) ( * ( + 0 ( * Nl6arg41 1 ) ) undef586 ) ) 0 ) ( <= ( + ( + ( + ( + ( + ( + ( + Nl6CT2 ( * Nl6arg12 0 ) ) ( * Nl6arg22 0 ) ) ( * Nl6arg32 0 ) ) ( * Nl6arg42 0 ) ) ( * Nl6arg52 0 ) ) ( * Nl6arg62 0 ) ) ( * ( + ( + 0 ( * Nl6arg52 1 ) ) ( * Nl6arg62 1 ) ) undef77 ) ( * ( + 0 ( * Nl6arg12 1 ) ) undef92 ) ( * ( + 0 ( * Nl6arg22 1 ) ) undef93 ) ( * ( + 0 ( * Nl6arg32 1 ) ) undef94 ) ( * ( + 0 ( * Nl6arg42 1 ) ) undef586 ) ) 0 ) ( <= ( + ( + ( + ( + ( + ( + ( + Nl6CT3 ( * Nl6arg13 0 ) ) ( * Nl6arg23 0 ) ) ( * Nl6arg33 0 ) ) ( * Nl6arg43 0 ) ) ( * Nl6arg53 0 ) ) ( * Nl6arg63 0 ) ) ( * ( + ( + 0 ( * Nl6arg53 1 ) ) ( * Nl6arg63 1 ) ) undef77 ) ( * ( + 0 ( * Nl6arg13 1 ) ) undef92 ) ( * ( + 0 ( * Nl6arg23 1 ) ) undef93 ) ( * ( + 0 ( * Nl6arg33 1 ) ) undef94 ) ( * ( + 0 ( * Nl6arg43 1 ) ) undef586 ) ) 0 ) ) ( and ( <= ( + 1 ( * ( - 1 ) arg2 ) ) 0 ) ( <= ( + 1 ( * ( - 1 ) undef83 ) ) 0 ) ( <= ( + 1 ( * ( - 1 ) undef129 ) ) 0 ) ( <= ( + ( - 1 ) ( * ( - 1 ) arg3 ) arg6 ) 0 ) ( <= ( + ( * ( - 1 ) arg1 ) undef128 ) 0 ) ( <= ( + ( * ( - 1 ) arg2 ) undef129 ) 0 ) ( <= ( + ( * ( - 1 ) arg4 ) arg6 ) 0 ) ( <= ( * ( - 1 ) arg6 ) 0 ) ( <= ( + undef83 ( * ( - 1 ) undef129 ) ) 0 ) ( <= ( + undef84 ( * ( - 1 ) undef128 ) ) 0 ) ( <= ( + ( * ( - 1 ) undef84 ) undef317 ) 0 ) ( <= ( + undef85 ( * ( - 1 ) undef128 ) ) 0 ) ( <= ( + ( * ( - 1 ) undef85 ) undef317 ) 0 ) ( <= ( + ( * ( - 1 ) undef317 ) undef326 ) 0 ) ( <= ( + 2 ( * ( - 1 ) arg1 ) undef129 ) 0 ) ( <= ( + 2 undef83 ( * ( - 1 ) undef128 ) ) 0 ) ( <= ( + 3 ( * ( - 1 ) arg1 ) ) 0 ) ( <= ( + 3 ( * ( - 1 ) undef84 ) ) 0 ) ( <= ( + 3 ( * ( - 1 ) undef85 ) ) 0 ) ( <= ( + 3 ( * ( - 1 ) undef128 ) ) 0 ) ( <= ( + 3 ( * ( - 1 ) undef317 ) ) 0 ) ( <= ( + 3 ( * ( - 1 ) undef326 ) ) 0 ) ( <= ( + ( - 2 ) ( * ( - 1 ) arg2 ) undef128 ) 0 ) ( <= ( + ( - 2 ) ( * ( - 1 ) undef83 ) undef317 ) 0 ) ( <= ( + ( - 2 ) undef84 ( * ( - 1 ) undef129 ) ) 0 ) ( <= ( + ( - 2 ) undef85 ( * ( - 1 ) undef129 ) ) 0 ) ( not ( <= ( + ( - 94 ) arg5 ) 0 ) ) ( = ( + arg5 ( * ( - 1 ) undef88 ) ) 0 ) ( <= ( + ( + ( + ( + ( + ( + Nl6CT1 ( * Nl6arg11 0 ) ) ( * Nl6arg21 0 ) ) ( * Nl6arg31 0 ) ) ( * Nl6arg41 0 ) ) ( * Nl6arg61 0 ) ) ( * ( + 0 Nl6arg51 ) arg5 ) ( * ( + 0 ( * Nl6arg41 1 ) ) arg6 ) ( * ( + 0 ( * Nl6arg11 1 ) ) undef83 ) ( * ( + 0 ( * Nl6arg21 1 ) ) undef84 ) ( * ( + 0 ( * Nl6arg31 1 ) ) undef85 ) ( * ( + 0 ( * Nl6arg61 1 ) ) undef88 ) ) 0 ) ( <= ( + ( + ( + ( + ( + ( + Nl6CT2 ( * Nl6arg12 0 ) ) ( * Nl6arg22 0 ) ) ( * Nl6arg32 0 ) ) ( * Nl6arg42 0 ) ) ( * Nl6arg62 0 ) ) ( * ( + 0 Nl6arg52 ) arg5 ) ( * ( + 0 ( * Nl6arg42 1 ) ) arg6 ) ( * ( + 0 ( * Nl6arg12 1 ) ) undef83 ) ( * ( + 0 ( * Nl6arg22 1 ) ) undef84 ) ( * ( + 0 ( * Nl6arg32 1 ) ) undef85 ) ( * ( + 0 ( * Nl6arg62 1 ) ) undef88 ) ) 0 ) ( <= ( + ( + ( + ( + ( + ( + Nl6CT3 ( * Nl6arg13 0 ) ) ( * Nl6arg23 0 ) ) ( * Nl6arg33 0 ) ) ( * Nl6arg43 0 ) ) ( * Nl6arg63 0 ) ) ( * ( + 0 Nl6arg53 ) arg5 ) ( * ( + 0 ( * Nl6arg43 1 ) ) arg6 ) ( * ( + 0 ( * Nl6arg13 1 ) ) undef83 ) ( * ( + 0 ( * Nl6arg23 1 ) ) undef84 ) ( * ( + 0 ( * Nl6arg33 1 ) ) undef85 ) ( * ( + 0 ( * Nl6arg63 1 ) ) undef88 ) ) 0 ) ) ( and ( <= ( + 1 ( * ( - 1 ) arg2 ) ) 0 ) ( <= ( + 1 ( * ( - 1 ) undef92 ) ) 0 ) ( <= ( + 1 ( * ( - 1 ) undef129 ) ) 0 ) ( <= ( + ( - 1 ) ( * ( - 1 ) arg3 ) arg6 ) 0 ) ( <= ( + ( * ( - 1 ) arg1 ) undef128 ) 0 ) ( <= ( + ( * ( - 1 ) arg2 ) undef129 ) 0 ) ( <= ( + ( * ( - 1 ) arg4 ) arg6 ) 0 ) ( <= ( * ( - 1 ) arg6 ) 0 ) ( <= ( + undef92 ( * ( - 1 ) undef129 ) ) 0 ) ( <= ( + undef93 ( * ( - 1 ) undef128 ) ) 0 ) ( <= ( + ( * ( - 1 ) undef93 ) undef317 ) 0 ) ( <= ( + undef94 ( * ( - 1 ) undef128 ) ) 0 ) ( <= ( + ( * ( - 1 ) undef94 ) undef317 ) 0 ) ( <= ( + ( * ( - 1 ) undef317 ) undef326 ) 0 ) ( <= ( + 2 ( * ( - 1 ) arg1 ) undef129 ) 0 ) ( <= ( + 2 undef92 ( * ( - 1 ) undef128 ) ) 0 ) ( <= ( + 3 ( * ( - 1 ) arg1 ) ) 0 ) ( <= ( + 3 ( * ( - 1 ) undef93 ) ) 0 ) ( <= ( + 3 ( * ( - 1 ) undef94 ) ) 0 ) ( <= ( + 3 ( * ( - 1 ) undef128 ) ) 0 ) ( <= ( + 3 ( * ( - 1 ) undef317 ) ) 0 ) ( <= ( + 3 ( * ( - 1 ) undef326 ) ) 0 ) ( <= ( + ( - 2 ) ( * ( - 1 ) arg2 ) undef128 ) 0 ) ( <= ( + ( - 2 ) ( * ( - 1 ) undef92 ) undef317 ) 0 ) ( <= ( + ( - 2 ) undef93 ( * ( - 1 ) undef129 ) ) 0 ) ( <= ( + ( - 2 ) undef94 ( * ( - 1 ) undef129 ) ) 0 ) ( not ( <= ( + ( - 94 ) arg5 ) 0 ) ) ( <= ( + ( + ( + ( + ( + ( + Nl6CT1 ( * Nl6arg11 0 ) ) ( * Nl6arg21 0 ) ) ( * Nl6arg31 0 ) ) ( * Nl6arg41 0 ) ) ( * Nl6arg61 0 ) ) ( * ( + ( + 0 Nl6arg51 ) ( * Nl6arg61 1 ) ) arg5 ) ( * ( + 0 ( * Nl6arg41 1 ) ) arg6 ) ( * ( + 0 ( * Nl6arg11 1 ) ) undef92 ) ( * ( + 0 ( * Nl6arg21 1 ) ) undef93 ) ( * ( + 0 ( * Nl6arg31 1 ) ) undef94 ) ) 0 ) ( <= ( + ( + ( + ( + ( + ( + Nl6CT2 ( * Nl6arg12 0 ) ) ( * Nl6arg22 0 ) ) ( * Nl6arg32 0 ) ) ( * Nl6arg42 0 ) ) ( * Nl6arg62 0 ) ) ( * ( + ( + 0 Nl6arg52 ) ( * Nl6arg62 1 ) ) arg5 ) ( * ( + 0 ( * Nl6arg42 1 ) ) arg6 ) ( * ( + 0 ( * Nl6arg12 1 ) ) undef92 ) ( * ( + 0 ( * Nl6arg22 1 ) ) undef93 ) ( * ( + 0 ( * Nl6arg32 1 ) ) undef94 ) ) 0 ) ( <= ( + ( + ( + ( + ( + ( + Nl6CT3 ( * Nl6arg13 0 ) ) ( * Nl6arg23 0 ) ) ( * Nl6arg33 0 ) ) ( * Nl6arg43 0 ) ) ( * Nl6arg63 0 ) ) ( * ( + ( + 0 Nl6arg53 ) ( * Nl6arg63 1 ) ) arg5 ) ( * ( + 0 ( * Nl6arg43 1 ) ) arg6 ) ( * ( + 0 ( * Nl6arg13 1 ) ) undef92 ) ( * ( + 0 ( * Nl6arg23 1 ) ) undef93 ) ( * ( + 0 ( * Nl6arg33 1 ) ) undef94 ) ) 0 ) ) ))
(assert ( or ( or ( and ( >= lam12n0 0 ) ( >= lam12n1 0 ) ( >= lam12n2 0 ) ( >= lam12n3 0 ) ( >= lam12n4 0 ) ( >= lam12n5 0 ) ( >= lam12n6 0 ) ( >= lam12n7 0 ) ( >= lam12n8 0 ) ( >= lam12n9 0 ) ( >= lam12n10 0 ) ( >= lam12n12 0 ) ( >= lam12n13 0 ) ( >= lam12n14 0 ) ( > ( + ( * 1 lam12n0 ) ( * 2 lam12n5 ) ( * 3 lam12n6 ) ( * 3 lam12n7 ) ( * 3 lam12n8 ) ( * 3 lam12n9 ) ( * ( - 2 ) lam12n10 ) ( * Nl6CT1 lam12n12 ) ( * Nl6CT2 lam12n13 ) ( * Nl6CT3 lam12n14 ) ( - 1 ) ) 0 ) ( = ( + ( * ( - 1 ) lam12n0 ) ( * ( - 1 ) lam12n10 ) ( * Nl6arg11 lam12n12 ) ( * Nl6arg12 lam12n13 ) ( * Nl6arg13 lam12n14 ) ) 0 ) ( = ( + ( * ( - 1 ) lam12n1 ) ( * ( - 1 ) lam12n6 ) ( * Nl6arg21 lam12n12 ) ( * Nl6arg22 lam12n13 ) ( * Nl6arg23 lam12n14 ) ) 0 ) ( = ( + ( * ( - 1 ) lam12n2 ) ( * ( - 1 ) lam12n7 ) ( * Nl6arg31 lam12n12 ) ( * Nl6arg32 lam12n13 ) ( * Nl6arg33 lam12n14 ) ) 0 ) ( = ( + ( * ( - 1 ) lam12n3 ) ( * Nl6arg41 lam12n12 ) ( * Nl6arg42 lam12n13 ) ( * Nl6arg43 lam12n14 ) ) 0 ) ( = ( + ( * ( - 1 ) lam12n5 ) ( * 1 lam12n11 ) ( * Nl6arg51 lam12n12 ) ( * Nl6arg52 lam12n13 ) ( * Nl6arg53 lam12n14 ) ) 0 ) ( = ( + ( * ( - 1 ) lam12n11 ) ( * Nl6arg61 lam12n12 ) ( * Nl6arg62 lam12n13 ) ( * Nl6arg63 lam12n14 ) ) 0 ) ( = ( + ( * 1 lam12n1 ) ( * 1 lam12n2 ) ( * ( - 1 ) lam12n4 ) ( * ( - 1 ) lam12n8 ) ( * 1 lam12n10 ) ) 0 ) ( = ( + ( * 1 lam12n4 ) ( * ( - 1 ) lam12n9 ) ) 0 ) ) ( and ( >= lam13n0 0 ) ( >= lam13n1 0 ) ( >= lam13n2 0 ) ( >= lam13n3 0 ) ( >= lam13n4 0 ) ( >= lam13n5 0 ) ( >= lam13n6 0 ) ( >= lam13n7 0 ) ( >= lam13n8 0 ) ( >= lam13n9 0 ) ( >= lam13n10 0 ) ( >= lam13n12 0 ) ( >= lam13n13 0 ) ( >= lam13n14 0 ) ( > ( + ( * 1 lam13n0 ) ( * 2 lam13n5 ) ( * 3 lam13n6 ) ( * 3 lam13n7 ) ( * 3 lam13n8 ) ( * 3 lam13n9 ) ( * ( - 2 ) lam13n10 ) ( * Nl6CT1 lam13n12 ) ( * Nl6CT2 lam13n13 ) ( * Nl6CT3 lam13n14 ) 95 ) 0 ) ( = ( + ( * ( - 1 ) lam13n0 ) ( * ( - 1 ) lam13n10 ) ( * Nl6arg11 lam13n12 ) ( * Nl6arg12 lam13n13 ) ( * Nl6arg13 lam13n14 ) ) 0 ) ( = ( + ( * ( - 1 ) lam13n1 ) ( * ( - 1 ) lam13n6 ) ( * Nl6arg21 lam13n12 ) ( * Nl6arg22 lam13n13 ) ( * Nl6arg23 lam13n14 ) ) 0 ) ( = ( + ( * ( - 1 ) lam13n2 ) ( * ( - 1 ) lam13n7 ) ( * Nl6arg31 lam13n12 ) ( * Nl6arg32 lam13n13 ) ( * Nl6arg33 lam13n14 ) ) 0 ) ( = ( + ( * ( - 1 ) lam13n3 ) ( * Nl6arg41 lam13n12 ) ( * Nl6arg42 lam13n13 ) ( * Nl6arg43 lam13n14 ) ) 0 ) ( = ( + ( * ( - 1 ) lam13n5 ) ( * 1 lam13n11 ) ( * Nl6arg51 lam13n12 ) ( * Nl6arg52 lam13n13 ) ( * Nl6arg53 lam13n14 ) ( - 1 ) ) 0 ) ( = ( + ( * ( - 1 ) lam13n11 ) ( * Nl6arg61 lam13n12 ) ( * Nl6arg62 lam13n13 ) ( * Nl6arg63 lam13n14 ) ) 0 ) ( = ( + ( * 1 lam13n1 ) ( * 1 lam13n2 ) ( * ( - 1 ) lam13n4 ) ( * ( - 1 ) lam13n8 ) ( * 1 lam13n10 ) ) 0 ) ( = ( + ( * 1 lam13n4 ) ( * ( - 1 ) lam13n9 ) ) 0 ) ) ) ( and ( or ( and ( <= ( + 1 ( * ( - 1 ) undef1 ) ) 0 ) ( <= ( + 1 ( * ( - 1 ) undef75 ) ) 0 ) ( <= ( + 1 ( * ( - 1 ) undef83 ) ) 0 ) ( <= ( + 1 ( * ( - 1 ) undef585 ) ) 0 ) ( <= ( + ( * ( - 1 ) arg3 ) undef586 ) 0 ) ( <= ( + undef1 ( * ( - 1 ) undef585 ) ) 0 ) ( <= ( + ( * ( - 1 ) undef1 ) undef75 ) 0 ) ( <= ( + ( * ( - 1 ) undef74 ) undef84 ) 0 ) ( <= ( + ( * ( - 1 ) undef74 ) undef85 ) 0 ) ( <= ( + ( * ( - 1 ) undef75 ) undef83 ) 0 ) ( <= ( + ( * ( - 1 ) undef84 ) undef317 ) 0 ) ( <= ( + ( * ( - 1 ) undef85 ) undef317 ) 0 ) ( <= ( + ( * ( - 1 ) undef317 ) undef326 ) 0 ) ( <= ( + 2 ( * ( - 1 ) undef74 ) undef83 ) 0 ) ( <= ( + 3 ( * ( - 1 ) undef74 ) ) 0 ) ( <= ( + 3 ( * ( - 1 ) undef84 ) ) 0 ) ( <= ( + 3 ( * ( - 1 ) undef85 ) ) 0 ) ( <= ( + 3 ( * ( - 1 ) undef317 ) ) 0 ) ( <= ( + 3 ( * ( - 1 ) undef326 ) ) 0 ) ( <= ( + ( - 2 ) ( * ( - 1 ) undef1 ) undef74 ) 0 ) ( <= ( + ( - 2 ) ( * ( - 1 ) undef75 ) undef84 ) 0 ) ( <= ( + ( - 2 ) ( * ( - 1 ) undef75 ) undef85 ) 0 ) ( <= ( + ( - 2 ) ( * ( - 1 ) undef83 ) undef317 ) 0 ) ( not ( <= ( + ( - 94 ) undef77 ) 0 ) ) ( = arg3 0 ) ( = ( + undef77 ( * ( - 1 ) undef88 ) ) 0 ) ( = ( * ( - 1 ) undef586 ) 0 ) ( <= ( + ( + ( + ( + ( + ( + ( + Nl6CT1 ( * Nl6arg11 0 ) ) ( * Nl6arg21 0 ) ) ( * Nl6arg31 0 ) ) ( * Nl6arg41 0 ) ) ( * Nl6arg51 0 ) ) ( * Nl6arg61 0 ) ) ( * ( + 0 ( * Nl6arg51 1 ) ) undef77 ) ( * ( + 0 ( * Nl6arg11 1 ) ) undef83 ) ( * ( + 0 ( * Nl6arg21 1 ) ) undef84 ) ( * ( + 0 ( * Nl6arg31 1 ) ) undef85 ) ( * ( + 0 ( * Nl6arg61 1 ) ) undef88 ) ( * ( + 0 ( * Nl6arg41 1 ) ) undef586 ) ) 0 ) ( <= ( + ( + ( + ( + ( + ( + ( + Nl6CT2 ( * Nl6arg12 0 ) ) ( * Nl6arg22 0 ) ) ( * Nl6arg32 0 ) ) ( * Nl6arg42 0 ) ) ( * Nl6arg52 0 ) ) ( * Nl6arg62 0 ) ) ( * ( + 0 ( * Nl6arg52 1 ) ) undef77 ) ( * ( + 0 ( * Nl6arg12 1 ) ) undef83 ) ( * ( + 0 ( * Nl6arg22 1 ) ) undef84 ) ( * ( + 0 ( * Nl6arg32 1 ) ) undef85 ) ( * ( + 0 ( * Nl6arg62 1 ) ) undef88 ) ( * ( + 0 ( * Nl6arg42 1 ) ) undef586 ) ) 0 ) ( <= ( + ( + ( + ( + ( + ( + ( + Nl6CT3 ( * Nl6arg13 0 ) ) ( * Nl6arg23 0 ) ) ( * Nl6arg33 0 ) ) ( * Nl6arg43 0 ) ) ( * Nl6arg53 0 ) ) ( * Nl6arg63 0 ) ) ( * ( + 0 ( * Nl6arg53 1 ) ) undef77 ) ( * ( + 0 ( * Nl6arg13 1 ) ) undef83 ) ( * ( + 0 ( * Nl6arg23 1 ) ) undef84 ) ( * ( + 0 ( * Nl6arg33 1 ) ) undef85 ) ( * ( + 0 ( * Nl6arg63 1 ) ) undef88 ) ( * ( + 0 ( * Nl6arg43 1 ) ) undef586 ) ) 0 ) ) ( and ( <= ( + 1 ( * ( - 1 ) undef1 ) ) 0 ) ( <= ( + 1 ( * ( - 1 ) undef75 ) ) 0 ) ( <= ( + 1 ( * ( - 1 ) undef92 ) ) 0 ) ( <= ( + 1 ( * ( - 1 ) undef585 ) ) 0 ) ( <= ( + ( * ( - 1 ) arg3 ) undef586 ) 0 ) ( <= ( + undef1 ( * ( - 1 ) undef585 ) ) 0 ) ( <= ( + ( * ( - 1 ) undef1 ) undef75 ) 0 ) ( <= ( + ( * ( - 1 ) undef74 ) undef93 ) 0 ) ( <= ( + ( * ( - 1 ) undef74 ) undef94 ) 0 ) ( <= ( + ( * ( - 1 ) undef75 ) undef92 ) 0 ) ( <= ( + ( * ( - 1 ) undef93 ) undef317 ) 0 ) ( <= ( + ( * ( - 1 ) undef94 ) undef317 ) 0 ) ( <= ( + ( * ( - 1 ) undef317 ) undef326 ) 0 ) ( <= ( + 2 ( * ( - 1 ) undef74 ) undef92 ) 0 ) ( <= ( + 3 ( * ( - 1 ) undef74 ) ) 0 ) ( <= ( + 3 ( * ( - 1 ) undef93 ) ) 0 ) ( <= ( + 3 ( * ( - 1 ) undef94 ) ) 0 ) ( <= ( + 3 ( * ( - 1 ) undef317 ) ) 0 ) ( <= ( + 3 ( * ( - 1 ) undef326 ) ) 0 ) ( <= ( + ( - 2 ) ( * ( - 1 ) undef1 ) undef74 ) 0 ) ( <= ( + ( - 2 ) ( * ( - 1 ) undef75 ) undef93 ) 0 ) ( <= ( + ( - 2 ) ( * ( - 1 ) undef75 ) undef94 ) 0 ) ( <= ( + ( - 2 ) ( * ( - 1 ) undef92 ) undef317 ) 0 ) ( not ( <= ( + ( - 94 ) undef77 ) 0 ) ) ( = arg3 0 ) ( = ( * ( - 1 ) undef586 ) 0 ) ( <= ( + ( + ( + ( + ( + ( + ( + Nl6CT1 ( * Nl6arg11 0 ) ) ( * Nl6arg21 0 ) ) ( * Nl6arg31 0 ) ) ( * Nl6arg41 0 ) ) ( * Nl6arg51 0 ) ) ( * Nl6arg61 0 ) ) ( * ( + ( + 0 ( * Nl6arg51 1 ) ) ( * Nl6arg61 1 ) ) undef77 ) ( * ( + 0 ( * Nl6arg11 1 ) ) undef92 ) ( * ( + 0 ( * Nl6arg21 1 ) ) undef93 ) ( * ( + 0 ( * Nl6arg31 1 ) ) undef94 ) ( * ( + 0 ( * Nl6arg41 1 ) ) undef586 ) ) 0 ) ( <= ( + ( + ( + ( + ( + ( + ( + Nl6CT2 ( * Nl6arg12 0 ) ) ( * Nl6arg22 0 ) ) ( * Nl6arg32 0 ) ) ( * Nl6arg42 0 ) ) ( * Nl6arg52 0 ) ) ( * Nl6arg62 0 ) ) ( * ( + ( + 0 ( * Nl6arg52 1 ) ) ( * Nl6arg62 1 ) ) undef77 ) ( * ( + 0 ( * Nl6arg12 1 ) ) undef92 ) ( * ( + 0 ( * Nl6arg22 1 ) ) undef93 ) ( * ( + 0 ( * Nl6arg32 1 ) ) undef94 ) ( * ( + 0 ( * Nl6arg42 1 ) ) undef586 ) ) 0 ) ( <= ( + ( + ( + ( + ( + ( + ( + Nl6CT3 ( * Nl6arg13 0 ) ) ( * Nl6arg23 0 ) ) ( * Nl6arg33 0 ) ) ( * Nl6arg43 0 ) ) ( * Nl6arg53 0 ) ) ( * Nl6arg63 0 ) ) ( * ( + ( + 0 ( * Nl6arg53 1 ) ) ( * Nl6arg63 1 ) ) undef77 ) ( * ( + 0 ( * Nl6arg13 1 ) ) undef92 ) ( * ( + 0 ( * Nl6arg23 1 ) ) undef93 ) ( * ( + 0 ( * Nl6arg33 1 ) ) undef94 ) ( * ( + 0 ( * Nl6arg43 1 ) ) undef586 ) ) 0 ) ) ( and ( <= ( + 1 ( * ( - 1 ) arg2 ) ) 0 ) ( <= ( + 1 ( * ( - 1 ) undef83 ) ) 0 ) ( <= ( + 1 ( * ( - 1 ) undef129 ) ) 0 ) ( <= ( + ( - 1 ) ( * ( - 1 ) arg3 ) arg6 ) 0 ) ( <= ( + ( * ( - 1 ) arg1 ) undef128 ) 0 ) ( <= ( + ( * ( - 1 ) arg2 ) undef129 ) 0 ) ( <= ( + ( * ( - 1 ) arg4 ) arg6 ) 0 ) ( <= ( * ( - 1 ) arg6 ) 0 ) ( <= ( + undef83 ( * ( - 1 ) undef129 ) ) 0 ) ( <= ( + undef84 ( * ( - 1 ) undef128 ) ) 0 ) ( <= ( + ( * ( - 1 ) undef84 ) undef317 ) 0 ) ( <= ( + undef85 ( * ( - 1 ) undef128 ) ) 0 ) ( <= ( + ( * ( - 1 ) undef85 ) undef317 ) 0 ) ( <= ( + ( * ( - 1 ) undef317 ) undef326 ) 0 ) ( <= ( + 2 ( * ( - 1 ) arg1 ) undef129 ) 0 ) ( <= ( + 2 undef83 ( * ( - 1 ) undef128 ) ) 0 ) ( <= ( + 3 ( * ( - 1 ) arg1 ) ) 0 ) ( <= ( + 3 ( * ( - 1 ) undef84 ) ) 0 ) ( <= ( + 3 ( * ( - 1 ) undef85 ) ) 0 ) ( <= ( + 3 ( * ( - 1 ) undef128 ) ) 0 ) ( <= ( + 3 ( * ( - 1 ) undef317 ) ) 0 ) ( <= ( + 3 ( * ( - 1 ) undef326 ) ) 0 ) ( <= ( + ( - 2 ) ( * ( - 1 ) arg2 ) undef128 ) 0 ) ( <= ( + ( - 2 ) ( * ( - 1 ) undef83 ) undef317 ) 0 ) ( <= ( + ( - 2 ) undef84 ( * ( - 1 ) undef129 ) ) 0 ) ( <= ( + ( - 2 ) undef85 ( * ( - 1 ) undef129 ) ) 0 ) ( not ( <= ( + ( - 94 ) arg5 ) 0 ) ) ( = ( + arg5 ( * ( - 1 ) undef88 ) ) 0 ) ( <= ( + ( + ( + ( + ( + ( + Nl6CT1 ( * Nl6arg11 0 ) ) ( * Nl6arg21 0 ) ) ( * Nl6arg31 0 ) ) ( * Nl6arg41 0 ) ) ( * Nl6arg61 0 ) ) ( * ( + 0 Nl6arg51 ) arg5 ) ( * ( + 0 ( * Nl6arg41 1 ) ) arg6 ) ( * ( + 0 ( * Nl6arg11 1 ) ) undef83 ) ( * ( + 0 ( * Nl6arg21 1 ) ) undef84 ) ( * ( + 0 ( * Nl6arg31 1 ) ) undef85 ) ( * ( + 0 ( * Nl6arg61 1 ) ) undef88 ) ) 0 ) ( <= ( + ( + ( + ( + ( + ( + Nl6CT2 ( * Nl6arg12 0 ) ) ( * Nl6arg22 0 ) ) ( * Nl6arg32 0 ) ) ( * Nl6arg42 0 ) ) ( * Nl6arg62 0 ) ) ( * ( + 0 Nl6arg52 ) arg5 ) ( * ( + 0 ( * Nl6arg42 1 ) ) arg6 ) ( * ( + 0 ( * Nl6arg12 1 ) ) undef83 ) ( * ( + 0 ( * Nl6arg22 1 ) ) undef84 ) ( * ( + 0 ( * Nl6arg32 1 ) ) undef85 ) ( * ( + 0 ( * Nl6arg62 1 ) ) undef88 ) ) 0 ) ( <= ( + ( + ( + ( + ( + ( + Nl6CT3 ( * Nl6arg13 0 ) ) ( * Nl6arg23 0 ) ) ( * Nl6arg33 0 ) ) ( * Nl6arg43 0 ) ) ( * Nl6arg63 0 ) ) ( * ( + 0 Nl6arg53 ) arg5 ) ( * ( + 0 ( * Nl6arg43 1 ) ) arg6 ) ( * ( + 0 ( * Nl6arg13 1 ) ) undef83 ) ( * ( + 0 ( * Nl6arg23 1 ) ) undef84 ) ( * ( + 0 ( * Nl6arg33 1 ) ) undef85 ) ( * ( + 0 ( * Nl6arg63 1 ) ) undef88 ) ) 0 ) ) ( and ( <= ( + 1 ( * ( - 1 ) arg2 ) ) 0 ) ( <= ( + 1 ( * ( - 1 ) undef92 ) ) 0 ) ( <= ( + 1 ( * ( - 1 ) undef129 ) ) 0 ) ( <= ( + ( - 1 ) ( * ( - 1 ) arg3 ) arg6 ) 0 ) ( <= ( + ( * ( - 1 ) arg1 ) undef128 ) 0 ) ( <= ( + ( * ( - 1 ) arg2 ) undef129 ) 0 ) ( <= ( + ( * ( - 1 ) arg4 ) arg6 ) 0 ) ( <= ( * ( - 1 ) arg6 ) 0 ) ( <= ( + undef92 ( * ( - 1 ) undef129 ) ) 0 ) ( <= ( + undef93 ( * ( - 1 ) undef128 ) ) 0 ) ( <= ( + ( * ( - 1 ) undef93 ) undef317 ) 0 ) ( <= ( + undef94 ( * ( - 1 ) undef128 ) ) 0 ) ( <= ( + ( * ( - 1 ) undef94 ) undef317 ) 0 ) ( <= ( + ( * ( - 1 ) undef317 ) undef326 ) 0 ) ( <= ( + 2 ( * ( - 1 ) arg1 ) undef129 ) 0 ) ( <= ( + 2 undef92 ( * ( - 1 ) undef128 ) ) 0 ) ( <= ( + 3 ( * ( - 1 ) arg1 ) ) 0 ) ( <= ( + 3 ( * ( - 1 ) undef93 ) ) 0 ) ( <= ( + 3 ( * ( - 1 ) undef94 ) ) 0 ) ( <= ( + 3 ( * ( - 1 ) undef128 ) ) 0 ) ( <= ( + 3 ( * ( - 1 ) undef317 ) ) 0 ) ( <= ( + 3 ( * ( - 1 ) undef326 ) ) 0 ) ( <= ( + ( - 2 ) ( * ( - 1 ) arg2 ) undef128 ) 0 ) ( <= ( + ( - 2 ) ( * ( - 1 ) undef92 ) undef317 ) 0 ) ( <= ( + ( - 2 ) undef93 ( * ( - 1 ) undef129 ) ) 0 ) ( <= ( + ( - 2 ) undef94 ( * ( - 1 ) undef129 ) ) 0 ) ( not ( <= ( + ( - 94 ) arg5 ) 0 ) ) ( <= ( + ( + ( + ( + ( + ( + Nl6CT1 ( * Nl6arg11 0 ) ) ( * Nl6arg21 0 ) ) ( * Nl6arg31 0 ) ) ( * Nl6arg41 0 ) ) ( * Nl6arg61 0 ) ) ( * ( + ( + 0 Nl6arg51 ) ( * Nl6arg61 1 ) ) arg5 ) ( * ( + 0 ( * Nl6arg41 1 ) ) arg6 ) ( * ( + 0 ( * Nl6arg11 1 ) ) undef92 ) ( * ( + 0 ( * Nl6arg21 1 ) ) undef93 ) ( * ( + 0 ( * Nl6arg31 1 ) ) undef94 ) ) 0 ) ( <= ( + ( + ( + ( + ( + ( + Nl6CT2 ( * Nl6arg12 0 ) ) ( * Nl6arg22 0 ) ) ( * Nl6arg32 0 ) ) ( * Nl6arg42 0 ) ) ( * Nl6arg62 0 ) ) ( * ( + ( + 0 Nl6arg52 ) ( * Nl6arg62 1 ) ) arg5 ) ( * ( + 0 ( * Nl6arg42 1 ) ) arg6 ) ( * ( + 0 ( * Nl6arg12 1 ) ) undef92 ) ( * ( + 0 ( * Nl6arg22 1 ) ) undef93 ) ( * ( + 0 ( * Nl6arg32 1 ) ) undef94 ) ) 0 ) ( <= ( + ( + ( + ( + ( + ( + Nl6CT3 ( * Nl6arg13 0 ) ) ( * Nl6arg23 0 ) ) ( * Nl6arg33 0 ) ) ( * Nl6arg43 0 ) ) ( * Nl6arg63 0 ) ) ( * ( + ( + 0 Nl6arg53 ) ( * Nl6arg63 1 ) ) arg5 ) ( * ( + 0 ( * Nl6arg43 1 ) ) arg6 ) ( * ( + 0 ( * Nl6arg13 1 ) ) undef92 ) ( * ( + 0 ( * Nl6arg23 1 ) ) undef93 ) ( * ( + 0 ( * Nl6arg33 1 ) ) undef94 ) ) 0 ) ) ) false ) ))
(check-sat)
(exit)
